<instance format="XCSP3" type="CSP">
  <variables>
    <var id="x0"> 1 7 13 </var>
    <var id="x1"> 7 13 15 17 </var>
    <var id="x2"> 0 12 13 </var>
    <var id="x3"> 0 12 13 15 </var>
    <var id="x4"> 0 12 </var>
    <var id="x5"> 7 15 17 </var>
    <var id="x6"> 12 15 17 </var>
    <var id="x7"> 3 10 12 14 </var>
    <var id="x8"> 2 7 10 14 </var>
    <var id="x9"> 3 7 10 14 </var>
    <var id="x10"> 7 12 15 </var>
    <var id="x11"> 2 3 12 </var>
    <var id="x12"> 2 3 7 11 15 </var>
    <var id="x13"> 2 10..12 </var>
    <var id="x14"> 3 14 </var>
    <var id="x15"> 4 6 9 </var>
    <var id="x16"> 3 4 9 </var>
    <var id="x17"> 2..4 6 8 </var>
    <var id="x18"> 2 3 6 9 11 </var>
    <var id="x19"> 2 8 9 11 </var>
    <var id="x20"> 3 5 11 </var>
    <var id="x21"> 2 3 5 9 </var>
    <var id="x22"> 5 6 8 11 </var>
    <var id="x23"> 0 7 8 14 </var>
    <var id="x24"> 3 6 7 14 </var>
    <var id="x25"> 3 7 </var>
    <var id="x26"> 0 3 6 8 </var>
    <var id="x27"> 0 3 8 </var>
    <var id="x28"> 3 6 7 11 </var>
    <var id="x29"> 0 3 5 7 11 14 </var>
    <var id="x30"> 3 5 7 14 </var>
    <var id="x31"> 0 3 5 9 14 </var>
    <var id="x32"> 5 13 14 </var>
    <var id="x33"> 3 6 13 14 </var>
    <var id="x34"> 0 3 6 13 </var>
    <var id="x35"> 0 6 9 15 </var>
    <var id="x36"> 3 5 6 </var>
    <var id="x37"> 0 3 5 13 14 </var>
    <var id="x38"> 3 5 9 14 15 </var>
    <var id="x39"> 7 8 10 </var>
    <var id="x40"> 0 7 8 10 </var>
    <var id="x41"> 6 7 10 17 </var>
    <var id="x42"> 0 7 8 15 17 </var>
    <var id="x43"> 0 6 8 </var>
    <var id="x44"> 0 6..9 15 </var>
    <var id="x45"> 0 8..10 </var>
    <var id="x46"> 6 8 9 17 </var>
    <var id="x47"> 9 10 16 </var>
    <var id="x48"> 9 10 12 </var>
    <var id="x49"> 1 10 17 </var>
    <var id="x50"> 1 10 12 17 </var>
    <var id="x51"> 2 9 12 </var>
    <var id="x52"> 1 10 11 17 </var>
    <var id="x53"> 1 9 16 17 </var>
    <var id="x54"> 11 12 17 </var>
    <var id="x55"> 1 13 14 </var>
    <var id="x56"> 0 4 14 </var>
    <var id="x57"> 0 4 </var>
    <var id="x58"> 3 4 9 13 16 </var>
    <var id="x59"> 3 9 13 </var>
    <var id="x60"> 1 3 </var>
    <var id="x61"> 0 9 16 </var>
    <var id="x62"> 0 3 13 14 </var>
    <var id="x63"> 4 6 </var>
    <var id="x64"> 4 8 12 17 </var>
    <var id="x65"> 3 6 </var>
    <var id="x66"> 3 6 8 17 </var>
    <var id="x67"> 3 12 14 </var>
    <var id="x68"> 3 14 17 </var>
    <var id="x69"> 6 8 12 14 17 </var>
    <var id="x70"> 7 9 13 15 16 </var>
    <var id="x71"> 5 9 14 </var>
    <var id="x72"> 7 13 14 </var>
    <var id="x73"> 5 8 </var>
    <var id="x74"> 8 9 13 15 </var>
    <var id="x75"> 7..9 15 </var>
    <var id="x76"> 8 9 14 16 </var>
    <var id="x77"> 5 8 14 15 </var>
    <var id="x78"> 7 9 15 </var>
    <var id="x79"> 7 17 </var>
    <var id="x80"> 0 5 7 8 12 15 17 </var>
    <var id="x81"> 5 8 12 17 </var>
    <var id="x82"> 7 9 15 </var>
    <var id="x83"> 5 8 17 </var>
    <var id="x84"> 0 5 7 12 </var>
    <var id="x85"> 5 8 12 15 17 </var>
    <var id="x86"> 4 8 10 14 </var>
    <var id="x87"> 3 4 13 17 </var>
    <var id="x88"> 3 8 10 12 17 </var>
    <var id="x89"> 3 8 12 13 </var>
    <var id="x90"> 8 12 </var>
    <var id="x91"> 3 8 10 17 </var>
    <var id="x92"> 3 8 14 17 </var>
    <var id="x93"> 8 12 14 17 </var>
    <var id="x94"> 4 7 10 13 </var>
    <var id="x95"> 2 4 7 8 10 14 </var>
    <var id="x96"> 4 7 8 12 </var>
    <var id="x97"> 4 7 13 </var>
    <var id="x98"> 2 4 8 12 13 </var>
    <var id="x99"> 2 8 10 12 </var>
    <var id="x100"> 7 12..14 </var>
    <var id="x101"> 2 7 14 </var>
    <var id="x102"> 6 7 10 13 15 </var>
    <var id="x103"> 3 10 12 </var>
    <var id="x104"> 7 8 10 13 </var>
    <var id="x105"> 3 7 13 15 </var>
    <var id="x106"> 3 8 10 12 </var>
    <var id="x107"> 3 8 12 13 15 </var>
    <var id="x108"> 6..8 12 15 </var>
    <var id="x109"> 3 7 12 13 </var>
    <var id="x110"> 7 </var>
    <var id="x111"> 5 7 15 17 </var>
    <var id="x112"> 1 3 5 17 </var>
    <var id="x113"> 3 9 15 </var>
    <var id="x114"> 3 7 9 11 15 </var>
    <var id="x115"> 1 3 5 11 17 </var>
    <var id="x116"> 1 3 9 17 </var>
    <var id="x117"> 5 11 15 17 </var>
    <var id="x118"> 4 9 12 </var>
    <var id="x119"> 4 9 13 </var>
    <var id="x120"> 2 4 6 8 12 13 </var>
    <var id="x121"> 2 8 9 12 13 </var>
    <var id="x122"> 2 6 8 9 12 </var>
    <var id="x123"> 2 9 </var>
    <var id="x124"> 6 8 9 </var>
    <var id="x125"> 7 10 16 </var>
    <var id="x126"> 0 3 5 10 </var>
    <var id="x127"> 5 7 10 </var>
    <var id="x128"> 0 2 3 </var>
    <var id="x129"> 0 2 7 </var>
    <var id="x130"> 3 5 10 17 </var>
    <var id="x131"> 0 2 10 16 </var>
    <var id="x132"> 3 16 17 </var>
    <var id="x133"> 0 3 5 10 </var>
    <var id="x134"> 1 5 8 10 </var>
    <var id="x135"> 1 3 6 10 </var>
    <var id="x136"> 0 5 8 </var>
    <var id="x137"> 1 3 5 8 10 </var>
    <var id="x138"> 2 3 6 </var>
    <var id="x139"> 0 2 8 10 </var>
    <var id="x140"> 2 3 5 </var>
  </variables>
  <constraints>
    <group>
      <allDifferent> %... </allDifferent>
      <args> x0 x1 x2 x3 x4 x5 x6 </args>
      <args> x7 x8 x9 x10 x11 x12 x13 x14 </args>
      <args> x15 x16 x17 x18 x19 x20 x21 x22 </args>
      <args> x23 x24 x25 x26 x27 x28 x29 x30 </args>
      <args> x31 x32 x33 x34 x35 x36 x37 x38 </args>
      <args> x39 x40 x41 x42 x43 x44 x45 x46 </args>
      <args> x47 x48 x49 x50 x51 x52 x53 x54 </args>
      <args> x55 x56 x57 x58 x59 x60 x61 x62 </args>
      <args> x63 x64 x65 x66 x67 x68 x69 </args>
      <args> x70 x71 x72 x73 x74 x75 x76 x77 </args>
      <args> x78 x79 x80 x81 x82 x83 x84 x85 </args>
      <args> x86 x87 x88 x89 x90 x91 x92 x93 </args>
      <args> x94 x95 x96 x97 x98 x99 x100 x101 </args>
      <args> x102 x103 x104 x105 x106 x107 x108 x109 </args>
      <args> x110 x111 x112 x113 x114 x115 x116 x117 </args>
      <args> x118 x119 x120 x121 x122 x123 x124 </args>
      <args> x125 x126 x127 x128 x129 x130 x131 x132 </args>
      <args> x133 x134 x135 x136 x137 x138 x139 x140 </args>
      <args> x15 x47 x63 x70 x78 x94 x102 x125 </args>
      <args> x7 x31 x48 x71 x103 x118 x126 x133 </args>
      <args> x0 x32 x39 x55 x104 x127 x134 </args>
      <args> x8 x23 x40 x56 x86 x95 x110 </args>
      <args> x9 x24 x33 x41 x49 x72 x79 x135 </args>
      <args> x10 x42 x57 x64 x80 x96 x111 x136 </args>
      <args> x1 x16 x25 x58 x87 x97 x105 x119 </args>
      <args> x2 x11 x17 x26 x34 x43 x98 x120 </args>
      <args> x50 x73 x81 x88 x106 x112 x137 </args>
      <args> x3 x27 x74 x89 x107 x113 x121 x128 </args>
      <args> x35 x44 x51 x75 x90 x108 x122 x129 </args>
      <args> x12 x18 x28 x59 x65 x82 x114 x138 </args>
      <args> x36 x52 x60 x66 x83 x91 x115 x130 </args>
      <args> x4 x13 x19 x45 x61 x99 x131 x139 </args>
      <args> x20 x29 x37 x62 x67 x84 x100 x109 </args>
      <args> x5 x21 x30 x38 x68 x101 x123 x140 </args>
      <args> x14 x46 x53 x76 x92 x116 x124 x132 </args>
      <args> x6 x22 x54 x69 x77 x85 x93 x117 </args>
    </group>
  </constraints>
</instance>

